interpolants/tmp_sum_to_n._msat__msat.txt
unsat
(let ((.def_25 (= n_0 n_1))) (let ((.def_235 (<= 1 (+ n_1 (* (- 1) i_1))))) (let ((.def_236 (and (= i_0 0) .def_25))) (and .def_235 (and .def_236 (and .def_25 (and (<= 0 (+ n_0 (+ (* (- 1) i_0) (* (- 1) n_1)))) (and .def_235 (and .def_236 (and (and (<= i_0 i_1) (and (<= (+ sum_0 (+ i_0 (+ (* (- 1) sum_1) (* (- 1) i_1)))) 0) (<= 0 (+ sum_0 (+ i_0 (+ (* (- 1) sum_1) (* (- 1) i_1))))))) (and .def_235 (and .def_236 (and (and .def_235 (<= i_1 i_0)) (and (and .def_235 (<= (+ sum_0 (+ (* 2 i_0) (+ (* (- 1) sum_1) (* (- 2) i_1)))) 0)) (<= 0 (+ sum_0 (+ (* 2 i_0) (+ (* (- 1) sum_1) (* (- 2) i_1)))))))))))))))))))
(let ((.def_314 (= np_1 np_0))) (let ((.def_315 (and (= ip_0 0) .def_314))) (and .def_315 (and .def_314 (and (and .def_315 (and (and .def_315 (and (<= (+ ip_1 (* (- 1) ip_0)) 1) (and (<= 1 (+ sump_1 (+ ip_1 (+ (* (- 2) ip_0) (* (- 1) sump_0))))) (<= (+ sump_1 (+ ip_1 (+ (* (- 2) ip_0) (* (- 1) sump_0)))) 1)))) (and (<= 1 (+ ip_1 (* (- 1) ip_0))) (and (<= 0 (+ sump_1 (+ (* (- 1) ip_0) (* (- 1) sump_0)))) (<= (+ sump_1 (+ (* (- 1) ip_0) (* (- 1) sump_0))) 0))))) (<= (+ np_1 (+ ip_0 (* (- 1) np_0))) 0))))))
(let ((.def_371 (= npp_1 npp_0))) (let ((.def_372 (and (= ipp_0 0) .def_371))) (and .def_372 (and .def_371 (and (and .def_372 (and (and .def_372 (or (<= (+ npp_1 (* (- 1) ipp_0)) 1) (and (<= 1 (+ sumpp_1 (+ (* (- 2) ipp_0) (* (- 1) sumpp_0)))) (<= (+ sumpp_1 (+ (* (- 2) ipp_0) (* (- 1) sumpp_0))) 1)))) (or (<= 2 (+ npp_1 (* (- 1) ipp_0))) (and (<= 0 (+ sumpp_1 (+ (* (- 1) ipp_0) (* (- 1) sumpp_0)))) (<= (+ sumpp_1 (+ (* (- 1) ipp_0) (* (- 1) sumpp_0))) 0))))) (<= (+ npp_1 (+ ipp_0 (* (- 1) npp_0))) 0))))))
(let ((.def_430 (= nppp_1 0))) (let ((.def_467 (not .def_430))) (or .def_430 (and (= nppp_0 nppp_1) (not (and (and .def_467 (not (and (or (<= (+ ippp_0 (* (- 1) nppp_1)) (- 1)) (and (<= sumppp_0 sumppp_1) (<= sumppp_1 sumppp_0))) (not (and .def_467 (and (not (<= nppp_1 ippp_0)) (not (and (<= (+ sumppp_0 (+ ippp_0 (* (- 1) sumppp_1))) 0) (<= 0 (+ sumppp_0 (+ ippp_0 (* (- 1) sumppp_1)))))))))))) (not (<= nppp_1 0))))))))
(let ((.def_201 (not (= npppp_1 0)))) (let ((.def_512 (not (and (<= sumpppp_0 sumpppp_1) (<= sumpppp_1 sumpppp_0))))) (not (and .def_201 (and (= npppp_0 npppp_1) (and (not (<= npppp_1 0)) (and .def_201 (and (and .def_201 (and (not (<= 1 (+ ipppp_0 (* (- 1) npppp_1)))) .def_512)) (and .def_512 (not (<= (+ npppp_0 (* (- 1) npppp_1)) (- 1))))))))))))
